CPXPARAM_Emphasis_MIP#P8#1#0.758798#0.192535
CPXPARAM_Emphasis_MIP#P8#2#3.482295#0.883586
CPXPARAM_Emphasis_MIP#P8#3#3.941092#1.000000
CPXPARAM_Emphasis_MIP#P8#4#3.863745#0.980374
CPXPARAM_Emphasis_MIP#P8#5#3.940317#0.999803
